c Generated map
c Size: 13 * 13, weights in range: 1 to 10, walls: False, with ratio 0.4
c dim 4 of 4
c
p sp 169 312
c graph contains 169 nodes and 312 arcs
c
a 1 14 6
a 14 1 6
a 1 2 2
a 2 1 2
a 2 15 2
a 15 2 2
a 2 3 3
a 3 2 3
a 3 16 9
a 16 3 9
a 3 4 3
a 4 3 3
a 4 17 4
a 17 4 4
a 4 5 2
a 5 4 2
a 5 18 4
a 18 5 4
a 5 6 5
a 6 5 5
a 6 19 1
a 19 6 1
a 6 7 1
a 7 6 1
a 7 20 5
a 20 7 5
a 7 8 6
a 8 7 6
a 8 21 2
a 21 8 2
a 8 9 7
a 9 8 7
a 9 22 3
a 22 9 3
a 9 10 7
a 10 9 7
a 10 23 10
a 23 10 10
a 10 11 6
a 11 10 6
a 11 24 10
a 24 11 10
a 11 12 7
a 12 11 7
a 12 25 10
a 25 12 10
a 12 13 1
a 13 12 1
a 13 26 6
a 26 13 6
a 14 27 1
a 27 14 1
a 14 15 3
a 15 14 3
a 15 28 6
a 28 15 6
a 15 16 8
a 16 15 8
a 16 29 10
a 29 16 10
a 16 17 2
a 17 16 2
a 17 30 1
a 30 17 1
a 17 18 4
a 18 17 4
a 18 31 9
a 31 18 9
a 18 19 3
a 19 18 3
a 19 32 2
a 32 19 2
a 19 20 7
a 20 19 7
a 20 33 8
a 33 20 8
a 20 21 3
a 21 20 3
a 21 34 4
a 34 21 4
a 21 22 2
a 22 21 2
a 22 35 5
a 35 22 5
a 22 23 4
a 23 22 4
a 23 36 9
a 36 23 9
a 23 24 9
a 24 23 9
a 24 37 1
a 37 24 1
a 24 25 5
a 25 24 5
a 25 38 1
a 38 25 1
a 25 26 1
a 26 25 1
a 26 39 6
a 39 26 6
a 27 40 4
a 40 27 4
a 27 28 2
a 28 27 2
a 28 41 4
a 41 28 4
a 28 29 3
a 29 28 3
a 29 42 2
a 42 29 2
a 29 30 6
a 30 29 6
a 30 43 4
a 43 30 4
a 30 31 5
a 31 30 5
a 31 44 6
a 44 31 6
a 31 32 1
a 32 31 1
a 32 45 5
a 45 32 5
a 32 33 10
a 33 32 10
a 33 46 1
a 46 33 1
a 33 34 3
a 34 33 3
a 34 47 6
a 47 34 6
a 34 35 2
a 35 34 2
a 35 48 1
a 48 35 1
a 35 36 6
a 36 35 6
a 36 49 5
a 49 36 5
a 36 37 4
a 37 36 4
a 37 50 3
a 50 37 3
a 37 38 2
a 38 37 2
a 38 51 9
a 51 38 9
a 38 39 9
a 39 38 9
a 39 52 2
a 52 39 2
a 40 53 1
a 53 40 1
a 40 41 6
a 41 40 6
a 41 54 8
a 54 41 8
a 41 42 5
a 42 41 5
a 42 55 6
a 55 42 6
a 42 43 6
a 43 42 6
a 43 56 7
a 56 43 7
a 43 44 7
a 44 43 7
a 44 57 4
a 57 44 4
a 44 45 6
a 45 44 6
a 45 58 2
a 58 45 2
a 45 46 6
a 46 45 6
a 46 59 3
a 59 46 3
a 46 47 7
a 47 46 7
a 47 60 8
a 60 47 8
a 47 48 3
a 48 47 3
a 48 61 7
a 61 48 7
a 48 49 10
a 49 48 10
a 49 62 1
a 62 49 1
a 49 50 2
a 50 49 2
a 50 63 3
a 63 50 3
a 50 51 10
a 51 50 10
a 51 64 6
a 64 51 6
a 51 52 5
a 52 51 5
a 52 65 6
a 65 52 6
a 53 66 2
a 66 53 2
a 53 54 4
a 54 53 4
a 54 67 6
a 67 54 6
a 54 55 2
a 55 54 2
a 55 68 9
a 68 55 9
a 55 56 2
a 56 55 2
a 56 69 9
a 69 56 9
a 56 57 9
a 57 56 9
a 57 70 8
a 70 57 8
a 57 58 8
a 58 57 8
a 58 71 7
a 71 58 7
a 58 59 3
a 59 58 3
a 59 72 7
a 72 59 7
a 59 60 2
a 60 59 2
a 60 73 9
a 73 60 9
a 60 61 5
a 61 60 5
a 61 74 8
a 74 61 8
a 61 62 8
a 62 61 8
a 62 75 9
a 75 62 9
a 62 63 8
a 63 62 8
a 63 76 5
a 76 63 5
a 63 64 6
a 64 63 6
a 64 77 8
a 77 64 8
a 64 65 2
a 65 64 2
a 65 78 1
a 78 65 1
a 66 79 8
a 79 66 8
a 66 67 6
a 67 66 6
a 67 80 6
a 80 67 6
a 67 68 7
a 68 67 7
a 68 81 10
a 81 68 10
a 68 69 1
a 69 68 1
a 69 82 3
a 82 69 3
a 69 70 10
a 70 69 10
a 70 83 10
a 83 70 10
a 70 71 2
a 71 70 2
a 71 84 5
a 84 71 5
a 71 72 2
a 72 71 2
a 72 85 3
a 85 72 3
a 72 73 8
a 73 72 8
a 73 86 1
a 86 73 1
a 73 74 5
a 74 73 5
a 74 87 9
a 87 74 9
a 74 75 2
a 75 74 2
a 75 88 2
a 88 75 2
a 75 76 4
a 76 75 4
a 76 89 4
a 89 76 4
a 76 77 1
a 77 76 1
a 77 90 8
a 90 77 8
a 77 78 9
a 78 77 9
a 78 91 5
a 91 78 5
a 79 92 3
a 92 79 3
a 79 80 7
a 80 79 7
a 80 93 1
a 93 80 1
a 80 81 3
a 81 80 3
a 81 94 6
a 94 81 6
a 81 82 2
a 82 81 2
a 82 95 9
a 95 82 9
a 82 83 3
a 83 82 3
a 83 96 8
a 96 83 8
a 83 84 6
a 84 83 6
a 84 97 8
a 97 84 8
a 84 85 2
a 85 84 2
a 85 98 2
a 98 85 2
a 85 86 5
a 86 85 5
a 86 99 6
a 99 86 6
a 86 87 10
a 87 86 10
a 87 100 4
a 100 87 4
a 87 88 5
a 88 87 5
a 88 101 4
a 101 88 4
a 88 89 8
a 89 88 8
a 89 102 8
a 102 89 8
a 89 90 10
a 90 89 10
a 90 103 5
a 103 90 5
a 90 91 5
a 91 90 5
a 91 104 5
a 104 91 5
a 92 105 10
a 105 92 10
a 92 93 1
a 93 92 1
a 93 106 10
a 106 93 10
a 93 94 6
a 94 93 6
a 94 107 8
a 107 94 8
a 94 95 1
a 95 94 1
a 95 108 3
a 108 95 3
a 95 96 9
a 96 95 9
a 96 109 9
a 109 96 9
a 96 97 1
a 97 96 1
a 97 110 4
a 110 97 4
a 97 98 4
a 98 97 4
a 98 111 8
a 111 98 8
a 98 99 5
a 99 98 5
a 99 112 7
a 112 99 7
a 99 100 8
a 100 99 8
a 100 113 10
a 113 100 10
a 100 101 4
a 101 100 4
a 101 114 7
a 114 101 7
a 101 102 5
a 102 101 5
a 102 115 10
a 115 102 10
a 102 103 6
a 103 102 6
a 103 116 7
a 116 103 7
a 103 104 8
a 104 103 8
a 104 117 5
a 117 104 5
a 105 118 9
a 118 105 9
a 105 106 1
a 106 105 1
a 106 119 1
a 119 106 1
a 106 107 3
a 107 106 3
a 107 120 9
a 120 107 9
a 107 108 8
a 108 107 8
a 108 121 10
a 121 108 10
a 108 109 2
a 109 108 2
a 109 122 1
a 122 109 1
a 109 110 9
a 110 109 9
a 110 123 5
a 123 110 5
a 110 111 7
a 111 110 7
a 111 124 2
a 124 111 2
a 111 112 8
a 112 111 8
a 112 125 2
a 125 112 2
a 112 113 4
a 113 112 4
a 113 126 3
a 126 113 3
a 113 114 9
a 114 113 9
a 114 127 8
a 127 114 8
a 114 115 7
a 115 114 7
a 115 128 6
a 128 115 6
a 115 116 8
a 116 115 8
a 116 129 1
a 129 116 1
a 116 117 3
a 117 116 3
a 117 130 9
a 130 117 9
a 118 131 4
a 131 118 4
a 118 119 2
a 119 118 2
a 119 132 6
a 132 119 6
a 119 120 10
a 120 119 10
a 120 133 2
a 133 120 2
a 120 121 10
a 121 120 10
a 121 134 2
a 134 121 2
a 121 122 5
a 122 121 5
a 122 135 9
a 135 122 9
a 122 123 1
a 123 122 1
a 123 136 10
a 136 123 10
a 123 124 7
a 124 123 7
a 124 137 9
a 137 124 9
a 124 125 9
a 125 124 9
a 125 138 1
a 138 125 1
a 125 126 10
a 126 125 10
a 126 139 9
a 139 126 9
a 126 127 2
a 127 126 2
a 127 140 7
a 140 127 7
a 127 128 5
a 128 127 5
a 128 141 7
a 141 128 7
a 128 129 3
a 129 128 3
a 129 142 8
a 142 129 8
a 129 130 8
a 130 129 8
a 130 143 8
a 143 130 8
a 131 144 10
a 144 131 10
a 131 132 4
a 132 131 4
a 132 145 6
a 145 132 6
a 132 133 5
a 133 132 5
a 133 146 9
a 146 133 9
a 133 134 2
a 134 133 2
a 134 147 3
a 147 134 3
a 134 135 9
a 135 134 9
a 135 148 3
a 148 135 3
a 135 136 3
a 136 135 3
a 136 149 2
a 149 136 2
a 136 137 6
a 137 136 6
a 137 150 1
a 150 137 1
a 137 138 1
a 138 137 1
a 138 151 1
a 151 138 1
a 138 139 6
a 139 138 6
a 139 152 6
a 152 139 6
a 139 140 8
a 140 139 8
a 140 153 1
a 153 140 1
a 140 141 5
a 141 140 5
a 141 154 9
a 154 141 9
a 141 142 9
a 142 141 9
a 142 155 3
a 155 142 3
a 142 143 1
a 143 142 1
a 143 156 5
a 156 143 5
a 144 157 6
a 157 144 6
a 144 145 3
a 145 144 3
a 145 158 8
a 158 145 8
a 145 146 4
a 146 145 4
a 146 159 7
a 159 146 7
a 146 147 10
a 147 146 10
a 147 160 1
a 160 147 1
a 147 148 8
a 148 147 8
a 148 161 2
a 161 148 2
a 148 149 4
a 149 148 4
a 149 162 6
a 162 149 6
a 149 150 8
a 150 149 8
a 150 163 4
a 163 150 4
a 150 151 5
a 151 150 5
a 151 164 2
a 164 151 2
a 151 152 7
a 152 151 7
a 152 165 8
a 165 152 8
a 152 153 1
a 153 152 1
a 153 166 3
a 166 153 3
a 153 154 5
a 154 153 5
a 154 167 6
a 167 154 6
a 154 155 10
a 155 154 10
a 155 168 6
a 168 155 6
a 155 156 7
a 156 155 7
a 156 169 3
a 169 156 3
a 157 158 3
a 158 157 3
a 158 159 4
a 159 158 4
a 159 160 4
a 160 159 4
a 160 161 10
a 161 160 10
a 161 162 5
a 162 161 5
a 162 163 6
a 163 162 6
a 163 164 9
a 164 163 9
a 164 165 6
a 165 164 6
a 165 166 7
a 166 165 7
a 166 167 2
a 167 166 2
a 167 168 5
a 168 167 5
a 168 169 2
a 169 168 2
